161 187 151 23 7 143 36 174 123 190 189 61 186 32 53 108 137 96 19 10 152 130 77 92 68 90 51 153 138 125 135 18 120 9 66 103 28 67 37 54 133 29 56 94 39 124 30 106 171 131 148 136 65 166 78 183 93 95 49 91 172 17 76 156 158 43 27 41 145 4 64 50 57 52 72 142 169 164 192 21 40 25 126 14 121 6 132 73 82 149 80 109 89 165 74 163 83 191 48 155 162 2 31 141 177 38 70 42 122 114 24 98 150 193 170 198 110 69 87 44 134 107 168 47 105 26 167 111 117 86 101 182 159 45 88 97 178 81 173 62 184 100 115 194 33 16 63 127 1 140 3 188 12 84 146 129 8 144 128 176 58 20 118 196 154 197 34 11 102 195 71 13 59 113 46 160 99 104 180 185 60 179 116 79 75 22 35 199 112 55 181 0 15 119 147 157 139 175 85 5 

